NAME          ClpDefau  FREE
ROWS
 N  OBJROW
 L  ZMUNI1_PCT
 L  ZMUNI2_PCT
 L  ZMUNI3_PCT
 L  ZMUNI4_PCT
 L  ZMUNI5_PCT
 L  ZMUNI6_PCT
 L  ZMUNI7_PCT
 L  ZMUNI8_PCT
 L  ZMUNI9_PCT
COLUMNS
    QMUNI1 OBJROW 1.          
    QMUNI1 ZMUNI1_PCT 29166.2216  
    QMUNI1 ZMUNI2_PCT 2025.6043   
    QMUNI1 ZMUNI3_PCT 4410.7437   
    QMUNI1 ZMUNI4_PCT 3270.9121   
    QMUNI1 ZMUNI5_PCT  -86.7844   
    QMUNI1 ZMUNI6_PCT 143.2419    
    QMUNI1 ZMUNI7_PCT 1882.5531   
    QMUNI1 ZMUNI8_PCT 1604.8432   
    QMUNI1 ZMUNI9_PCT 972.9385    
    QMUNI2 OBJROW 1.          
    QMUNI2 ZMUNI1_PCT 1627.9221   
    QMUNI2 ZMUNI2_PCT 34438.1333  
    QMUNI2 ZMUNI3_PCT 2460.0982   
    QMUNI2 ZMUNI4_PCT 2620.4109   
    QMUNI2 ZMUNI5_PCT  -317.7643  
    QMUNI2 ZMUNI6_PCT  -208.6639  
    QMUNI2 ZMUNI7_PCT 837.7075    
    QMUNI2 ZMUNI8_PCT 1152.8015   
    QMUNI2 ZMUNI9_PCT 1131.8206   
    QMUNI3 OBJROW 1.          
    QMUNI3 ZMUNI1_PCT 4331.2073   
    QMUNI3 ZMUNI2_PCT 2937.1262   
    QMUNI3 ZMUNI3_PCT 30735.7788  
    QMUNI3 ZMUNI4_PCT 5271.8162   
    QMUNI3 ZMUNI5_PCT  -230.5985  
    QMUNI3 ZMUNI6_PCT 7.4386999998
    QMUNI3 ZMUNI7_PCT 1890.1824   
    QMUNI3 ZMUNI8_PCT 1945.4956   
    QMUNI3 ZMUNI9_PCT 1553.5354   
    QMUNI4 OBJROW 1.          
    QMUNI4 ZMUNI1_PCT 3299.7131   
    QMUNI4 ZMUNI2_PCT 3132.6294   
    QMUNI4 ZMUNI3_PCT 5501.3656   
    QMUNI4 ZMUNI4_PCT 107484.7221 
    QMUNI4 ZMUNI5_PCT  -218.2007  
    QMUNI4 ZMUNI6_PCT  -68.0924   
    QMUNI4 ZMUNI7_PCT 1288.2232   
    QMUNI4 ZMUNI8_PCT 1364.1358   
    QMUNI4 ZMUNI9_PCT 1058.197    
    QMUNI5 OBJROW 1.          
    QMUNI5 ZMUNI1_PCT 236.1298    
    QMUNI5 ZMUNI2_PCT 213.0509    
    QMUNI5 ZMUNI3_PCT 215.1489    
    QMUNI5 ZMUNI4_PCT 171.6613    
    QMUNI5 ZMUNI5_PCT 35814.2852  
    QMUNI5 ZMUNI6_PCT 2905.4642   
    QMUNI5 ZMUNI7_PCT 518.7988    
    QMUNI5 ZMUNI8_PCT 394.249     
    QMUNI5 ZMUNI9_PCT 470.5429    
    QMUNI6 OBJROW 1.          
    QMUNI6 ZMUNI1_PCT 667.1906    
    QMUNI6 ZMUNI2_PCT 439.0717    
    QMUNI6 ZMUNI3_PCT 579.2617    
    QMUNI6 ZMUNI4_PCT 461.6737    
    QMUNI6 ZMUNI5_PCT 3274.3454   
    QMUNI6 ZMUNI6_PCT 33275.032   
    QMUNI6 ZMUNI7_PCT 1056.2896   
    QMUNI6 ZMUNI8_PCT 806.2363    
    QMUNI6 ZMUNI9_PCT 744.4381    
    QMUNI7 OBJROW 1.          
    QMUNI7 ZMUNI1_PCT 1315.4984   
    QMUNI7 ZMUNI2_PCT 789.4516    
    QMUNI7 ZMUNI3_PCT 1160.2401   
    QMUNI7 ZMUNI4_PCT 866.5085    
    QMUNI7 ZMUNI5_PCT  -302.6963  
    QMUNI7 ZMUNI6_PCT  -34.1415   
    QMUNI7 ZMUNI7_PCT 30817.4133  
    QMUNI7 ZMUNI8_PCT 2310.7529   
    QMUNI7 ZMUNI9_PCT 812.912     
    QMUNI8 OBJROW 1.          
    QMUNI8 ZMUNI1_PCT 1549.1486   
    QMUNI8 ZMUNI2_PCT 1418.1137   
    QMUNI8 ZMUNI3_PCT 1574.1348   
    QMUNI8 ZMUNI4_PCT 1261.9972   
    QMUNI8 ZMUNI5_PCT 542.0684    
    QMUNI8 ZMUNI6_PCT 640.2969    
    QMUNI8 ZMUNI7_PCT 3137.9699   
    QMUNI8 ZMUNI8_PCT 29710.1975  
    QMUNI8 ZMUNI9_PCT 2319.1452   
    QMUNI9 OBJROW 1.          
    QMUNI9 ZMUNI1_PCT 508.1177    
    QMUNI9 ZMUNI2_PCT 906.5628    
    QMUNI9 ZMUNI3_PCT 629.6157    
    QMUNI9 ZMUNI4_PCT 557.518     
    QMUNI9 ZMUNI5_PCT  -199.5087  
    QMUNI9 ZMUNI6_PCT  -142.6697  
    QMUNI9 ZMUNI7_PCT 552.7496    
    QMUNI9 ZMUNI8_PCT 1179.6951   
    QMUNI9 ZMUNI9_PCT 27827.2628  
RHS
    RHS ZMUNI1_PCT 0.0128659279
    RHS ZMUNI2_PCT 0.0253160468
    RHS ZMUNI3_PCT 0.0207131144
    RHS ZMUNI4_PCT -0.003294536
    RHS ZMUNI5_PCT 0.0279450635
    RHS ZMUNI6_PCT 0.0294551951
    RHS ZMUNI7_PCT 0.0101903131
    RHS ZMUNI8_PCT 0.0156306522
    RHS ZMUNI9_PCT 0.0130206058
BOUNDS
 LO BOUND QMUNI1 -0.000808846
 UP BOUND QMUNI1      1.1e+10
 LO BOUND QMUNI2 -0.000559747
 UP BOUND QMUNI2      1.1e+10
 LO BOUND QMUNI3 -0.000623059
 UP BOUND QMUNI3      1.1e+10
 LO BOUND QMUNI4 -0.000236461
 UP BOUND QMUNI4      1.1e+10
 LO BOUND QMUNI5 -0.000410558
 UP BOUND QMUNI5      1.1e+10
 LO BOUND QMUNI6 -0.000573845
 UP BOUND QMUNI6      1.1e+10
 LO BOUND QMUNI7 -0.000247155
 UP BOUND QMUNI7      1.1e+10
 LO BOUND QMUNI8 -0.000352589
 UP BOUND QMUNI8      1.1e+10
 LO BOUND QMUNI9 -0.000365775
 UP BOUND QMUNI9      1.1e+10
ENDATA
